
  22   10
  10   10   10   10   10   10   10   10   10   10

   0   0   0   0   0   0   0   0   0   0   0   4 2 6 7 13 
   3   0   0   0   0   0   0   0   0  10   0   2 21 3 
   7   0   0   0   0   0   0   0  10   0   0   2 20 4 
   1   0   0   0   0   0  10   0   0   0   0   1 5 
   8   0   0   0   0   0   0   0   0  10   0   2 19 8 
   7  10   0   0   0   0   0   0   0   0   0   2 19 9 
   1   0   0   0   0   0   0   0   0  10   0   5 20 19 17 16 10 
   6   0   0   0   0   0   0   0  10   0   0   1 9 
   3   0   0  10   0   0   0   0   0   0   0   4 18 17 16 10 
   2   0   0   0   0  10   0   0   0   0   0   2 15 11 
   5   0   0   0   0  10   0   0   0   0   0   1 12 
  10   0   0   0   0   0   0  10   0   0   0   1 14 
  10   0   0   0   0   0   0   0   0   0  10   1 21 
   8   0   0   0   0   0   0   0   0  10   0   1 22
   4   0   0   0   0   0   0   0   0   0  10   1 22
   2   0   0   0   0   0  10   0   0   0   0   1 22
   1   0   0   0   0   0   0   0  10   0   0   1 22
   1  10   0   0   0   0   0   0   0   0   0   1 22
   2  10   0   0   0   0   0   0   0   0   0   1 22
   5   0   0   0   0  10   0   0   0   0   0   1 22
   5  10   0   0   0   0   0   0   0   0   0   1 22
   0   0   0   0   0   0   0   0   0   0   0   0 
